c turning on binary mode checking
c parsing input formula with 259840 variables and 1039924 clauses
c finished parsing, read 3409071 bytes from proof file
c detected empty clause; start verification via backward checking
c 7356 of 1039924 clauses in core                            
c 2289 of 131871 lemmas in core using 71040 resolution steps
c 0 RAT lemmas in core; 544 redundant literals in core lemmas
s VERIFIED
c verification time: 1.617 seconds
